GeneratedTests/Random_11/Random_11_2.tsp
NAME: Random_11_2
TYPE: TSP
DIMENSION: 11
EDGE_WEIGHT_TYPE: EUC_2D
NODE_COORD_SECTION
1 14.316408 11.756942
2 4.787527 10.040671
3 15.019761 7.551637
4 23.764538 12.617638
5 25.342216 8.959523
6 10.894681 16.382574
7 16.411537 31.450377
8 27.9964 17.33252
9 3.1080124 14.811864
10 8.291243 1.4421898
11 30.460033 3.2710571
EOF
