GeneratedTests/Random_11/Random_11_2.txt
NAME: Random_11_2
TYPE: TSP
DIMENSION: 11
EDGE_WEIGHT_TYPE: EUC_2D
NODE_COORD_SECTION
1 4.715224 4.573304
2 25.249868 3.7521346
3 9.291834 9.475304
4 18.913353 25.395844
5 13.865689 7.0108786
6 6.4116325 2.3071222
7 26.768448 29.276684
8 4.9587936 29.638979
9 0.9256954 29.350252
10 10.680716 27.478292
11 12.0040245 7.47671
EOF
